; Copyright (c) 2026 The RIINA Authors. All rights reserved.
; Copyright (c) 2026 The RIINA Authors.
; Auto-generated from 02_FORMAL/coq/domains/PlatformStdlibVerification.v (20 assertions)
; Generated by scripts/generate-full-stack.py
; Module: PlatformStdlibVerification

(set-logic ALL)
(set-option :produce-models true)

; Platform (matches Coq: Inductive Platform)
(declare-datatypes ((Platform 0)) (((PNative) (PWasm32) (PAndroid) (PIos) (CapFileSystem) (CapNetwork) (CapConsole) (CapTimer) (CapDOM) (CapSensor) (CapCamera) (CapPushNotif))))

; PlatEffect (matches Coq: Inductive PlatEffect)
(declare-datatypes ((PlatEffect 0)) (((PEPure) (PEIO) (PENet) (PEUI))))

; PlatLabel (matches Coq: Inductive PlatLabel)
(declare-datatypes ((PlatLabel 0)) (((PLPublic) (PLSecret))))

; platform_has_cap (matches Coq: Definition platform_has_cap)
(define-fun platform_has_cap ((p Platform) (c Capability)) Bool
  true)

; can_compile (matches Coq: Definition can_compile)
(define-fun can_compile ((p Platform) (f PlatFunc)) Bool
  true)

; io_ni_safe (matches Coq: Definition io_ni_safe)
(define-fun io_ni_safe ((op IOOp)) Prop
  true)

; plat_001_universal_console (matches Coq: Theorem plat_001_universal_console)
(assert (= true true)) ; plat_001_universal_console [untranslatable]

; plat_001_universal_timer (matches Coq: Theorem plat_001_universal_timer)
(assert (= true true)) ; plat_001_universal_timer [untranslatable]

; plat_001_mobile_sensor (matches Coq: Theorem plat_001_mobile_sensor)
(assert (= true true)) ; plat_001_mobile_sensor [untranslatable]

; plat_001_mobile_camera (matches Coq: Theorem plat_001_mobile_camera)
(assert (= true true)) ; plat_001_mobile_camera [untranslatable]

; plat_001_universal_network (matches Coq: Theorem plat_001_universal_network)
(assert (= true true)) ; plat_001_universal_network [untranslatable]

; plat_002_wasm_no_filesystem (matches Coq: Theorem plat_002_wasm_no_filesystem)
(assert (= (platform_has_cap PWasm32 CapFileSystem) false)) ; plat_002_wasm_no_filesystem

; plat_002_wasm_no_sensor (matches Coq: Theorem plat_002_wasm_no_sensor)
(assert (= (platform_has_cap PWasm32 CapSensor) false)) ; plat_002_wasm_no_sensor

; plat_002_wasm_no_camera (matches Coq: Theorem plat_002_wasm_no_camera)
(assert (= (platform_has_cap PWasm32 CapCamera) false)) ; plat_002_wasm_no_camera

; plat_002_native_no_dom (matches Coq: Theorem plat_002_native_no_dom)
(assert (= (platform_has_cap PNative CapDOM) false)) ; plat_002_native_no_dom

; plat_002_native_no_sensor (matches Coq: Theorem plat_002_native_no_sensor)
(assert (= (platform_has_cap PNative CapSensor) false)) ; plat_002_native_no_sensor

; plat_003_pure_compiles_everywhere (matches Coq: Theorem plat_003_pure_compiles_everywhere)
(assert (= true true)) ; plat_003_pure_compiles_everywhere [untranslatable]

; plat_003_net_compiles_everywhere (matches Coq: Theorem plat_003_net_compiles_everywhere)
(assert (= true true)) ; plat_003_net_compiles_everywhere [untranslatable]

; plat_004_public_input_safe (matches Coq: Theorem plat_004_public_input_safe)
(assert (= true true)) ; plat_004_public_input_safe [untranslatable]

; plat_004_secret_preserved (matches Coq: Theorem plat_004_secret_preserved)
(assert (= true true)) ; plat_004_secret_preserved [untranslatable]

; plat_005_pure_platform_independent (matches Coq: Theorem plat_005_pure_platform_independent)
(assert (= true true)) ; plat_005_pure_platform_independent [untranslatable]

; plat_005_add_independent (matches Coq: Theorem plat_005_add_independent)
(assert (= true true)) ; plat_005_add_independent [untranslatable]

; plat_005_bool_independent (matches Coq: Theorem plat_005_bool_independent)
(assert (= true true)) ; plat_005_bool_independent [untranslatable]

; plat_006_dom_only_wasm (matches Coq: Theorem plat_006_dom_only_wasm)
(assert (= true true)) ; plat_006_dom_only_wasm [untranslatable]

; plat_006_push_mobile_only (matches Coq: Theorem plat_006_push_mobile_only)
(assert (= true true)) ; plat_006_push_mobile_only [untranslatable]

; plat_006_console_timer_universal (matches Coq: Theorem plat_006_console_timer_universal)
(assert (= true true)) ; plat_006_console_timer_universal [untranslatable]

; Verify all assertions are satisfiable
(check-sat)
(exit)
